(set-logic HORN)
(declare-datatypes ((Bool_93 0)) (((false_93 ) (true_93 ))))
(declare-fun diseqBool_42 (Bool_93 Bool_93) Bool)
(declare-fun isfalse_42 (Bool_93) Bool)
(declare-fun istrue_42 (Bool_93) Bool)
(assert (isfalse_42 false_93))
(assert (istrue_42 true_93))
(assert (diseqBool_42 false_93 true_93))
(assert (diseqBool_42 true_93 false_93))
(declare-fun and_93 (Bool_93 Bool_93 Bool_93) Bool)
(declare-fun or_94 (Bool_93 Bool_93 Bool_93) Bool)
(declare-fun hence_93 (Bool_93 Bool_93 Bool_93) Bool)
(declare-fun not_93 (Bool_93 Bool_93) Bool)
(assert (and_93 false_93 false_93 false_93))
(assert (and_93 false_93 true_93 false_93))
(assert (and_93 false_93 false_93 true_93))
(assert (and_93 true_93 true_93 true_93))
(assert (or_94 false_93 false_93 false_93))
(assert (or_94 true_93 true_93 false_93))
(assert (or_94 true_93 false_93 true_93))
(assert (or_94 true_93 true_93 true_93))
(assert (hence_93 true_93 false_93 false_93))
(assert (hence_93 false_93 true_93 false_93))
(assert (hence_93 true_93 false_93 true_93))
(assert (hence_93 true_93 true_93 true_93))
(assert (not_93 true_93 false_93))
(assert (not_93 false_93 true_93))
(declare-datatypes ((Nat_174 0)) (((zero_8 ) (succ_8 (p_25 Nat_174)))))
(declare-fun diseqNat_174 (Nat_174 Nat_174) Bool)
(declare-fun p_26 (Nat_174 Nat_174) Bool)
(declare-fun iszero_8 (Nat_174) Bool)
(declare-fun issucc_8 (Nat_174) Bool)
(assert (forall ((x_9330 Nat_174))
	(p_26 x_9330 (succ_8 x_9330))))
(assert (iszero_8 zero_8))
(assert (forall ((x_9332 Nat_174))
	(issucc_8 (succ_8 x_9332))))
(assert (forall ((x_9333 Nat_174))
	(diseqNat_174 zero_8 (succ_8 x_9333))))
(assert (forall ((x_9334 Nat_174))
	(diseqNat_174 (succ_8 x_9334) zero_8)))
(assert (forall ((x_9335 Nat_174) (x_9336 Nat_174))
	(=> (diseqNat_174 x_9335 x_9336)
	    (diseqNat_174 (succ_8 x_9335) (succ_8 x_9336)))))
(declare-fun leq_3 (Bool_93 Nat_174 Nat_174) Bool)
(assert (forall ((x_9314 Bool_93) (x_9312 Nat_174) (z_494 Nat_174))
	(=> (leq_3 x_9314 z_494 x_9312)
	    (leq_3 x_9314 (succ_8 z_494) (succ_8 x_9312)))))
(assert (forall ((z_494 Nat_174))
	(leq_3 false_93 (succ_8 z_494) zero_8)))
(assert (forall ((y_424 Nat_174))
	(leq_3 true_93 zero_8 y_424)))
(assert (forall ((x_9313 Nat_174) (y_425 Nat_174))
	(=>	(and true
			(diseqNat_174 x_9313 x_9313)
			(leq_3 true_93 x_9313 x_9313)
			(leq_3 true_93 x_9313 y_425))
		false)))
(assert (forall ((x_9313 Nat_174) (y_425 Nat_174))
	(=>	(and true
			(diseqNat_174 x_9313 x_9313)
			(leq_3 false_93 x_9313 x_9313)
			(leq_3 true_93 x_9313 y_425))
		false)))
(assert (forall ((x_9313 Nat_174) (y_425 Nat_174))
	(=>	(and true
			(diseqNat_174 y_425 x_9313)
			(leq_3 true_93 x_9313 y_425)
			(leq_3 false_93 x_9313 y_425))
		false)))
(assert (forall ((x_9313 Nat_174) (y_425 Nat_174))
	(=>	(and true
			(diseqNat_174 x_9313 x_9313)
			(leq_3 false_93 x_9313 y_425)
			(leq_3 false_93 x_9313 y_425))
		false)))
(check-sat)
